p cnf 0 0
c help to minisat to remove posibilities
1 2 0
3 4 0
5 6 0
7 8 0
9 10 0
11 12 0
13 14 0
15 16 0
17 18 0
19 20 0
c proper colo
1 21 22 23 0
3 24 25 26 0
5 27 28 29 0
7 30 31 32 0
9 33 34 35 0
11 36 37 38 0
13 39 40 41 0
15 42 43 44 0
17 45 46 47 0
19 48 49 50 0
-21 3 0
-21 9 0
-21 4 10 0
-21 -4 -10 0
21 -3 -9 4 -10 0
21 -3 -9 -4 10 0
-22 5 0
-22 11 0
-22 6 12 0
-22 -6 -12 0
22 -5 -11 6 -12 0
22 -5 -11 -6 12 0
-23 7 0
-23 13 0
-23 8 14 0
-23 -8 -14 0
23 -7 -13 8 -14 0
23 -7 -13 -8 14 0
-24 1 0
-24 9 0
-24 2 10 0
-24 -2 -10 0
24 -1 -9 2 -10 0
24 -1 -9 -2 10 0
-25 5 0
-25 15 0
-25 6 16 0
-25 -6 -16 0
25 -5 -15 6 -16 0
25 -5 -15 -6 16 0
-26 7 0
-26 17 0
-26 8 18 0
-26 -8 -18 0
26 -7 -17 8 -18 0
26 -7 -17 -8 18 0
-27 1 0
-27 11 0
-27 2 12 0
-27 -2 -12 0
27 -1 -11 2 -12 0
27 -1 -11 -2 12 0
-28 3 0
-28 15 0
-28 4 16 0
-28 -4 -16 0
28 -3 -15 4 -16 0
28 -3 -15 -4 16 0
-29 7 0
-29 19 0
-29 8 20 0
-29 -8 -20 0
29 -7 -19 8 -20 0
29 -7 -19 -8 20 0
-30 1 0
-30 13 0
-30 2 14 0
-30 -2 -14 0
30 -1 -13 2 -14 0
30 -1 -13 -2 14 0
-31 3 0
-31 17 0
-31 4 18 0
-31 -4 -18 0
31 -3 -17 4 -18 0
31 -3 -17 -4 18 0
-32 5 0
-32 19 0
-32 6 20 0
-32 -6 -20 0
32 -5 -19 6 -20 0
32 -5 -19 -6 20 0
-33 1 0
-33 3 0
-33 2 4 0
-33 -2 -4 0
33 -1 -3 2 -4 0
33 -1 -3 -2 4 0
-34 11 0
-34 15 0
-34 12 16 0
-34 -12 -16 0
34 -11 -15 12 -16 0
34 -11 -15 -12 16 0
-35 13 0
-35 17 0
-35 14 18 0
-35 -14 -18 0
35 -13 -17 14 -18 0
35 -13 -17 -14 18 0
-36 1 0
-36 5 0
-36 2 6 0
-36 -2 -6 0
36 -1 -5 2 -6 0
36 -1 -5 -2 6 0
-37 9 0
-37 15 0
-37 10 16 0
-37 -10 -16 0
37 -9 -15 10 -16 0
37 -9 -15 -10 16 0
-38 13 0
-38 19 0
-38 14 20 0
-38 -14 -20 0
38 -13 -19 14 -20 0
38 -13 -19 -14 20 0
-39 1 0
-39 7 0
-39 2 8 0
-39 -2 -8 0
39 -1 -7 2 -8 0
39 -1 -7 -2 8 0
-40 9 0
-40 17 0
-40 10 18 0
-40 -10 -18 0
40 -9 -17 10 -18 0
40 -9 -17 -10 18 0
-41 11 0
-41 19 0
-41 12 20 0
-41 -12 -20 0
41 -11 -19 12 -20 0
41 -11 -19 -12 20 0
-42 3 0
-42 5 0
-42 4 6 0
-42 -4 -6 0
42 -3 -5 4 -6 0
42 -3 -5 -4 6 0
-43 9 0
-43 11 0
-43 10 12 0
-43 -10 -12 0
43 -9 -11 10 -12 0
43 -9 -11 -10 12 0
-44 17 0
-44 19 0
-44 18 20 0
-44 -18 -20 0
44 -17 -19 18 -20 0
44 -17 -19 -18 20 0
-45 3 0
-45 7 0
-45 4 8 0
-45 -4 -8 0
45 -3 -7 4 -8 0
45 -3 -7 -4 8 0
-46 9 0
-46 13 0
-46 10 14 0
-46 -10 -14 0
46 -9 -13 10 -14 0
46 -9 -13 -10 14 0
-47 15 0
-47 19 0
-47 16 20 0
-47 -16 -20 0
47 -15 -19 16 -20 0
47 -15 -19 -16 20 0
-48 5 0
-48 7 0
-48 6 8 0
-48 -6 -8 0
48 -5 -7 6 -8 0
48 -5 -7 -6 8 0
-49 11 0
-49 13 0
-49 12 14 0
-49 -12 -14 0
49 -11 -13 12 -14 0
49 -11 -13 -12 14 0
-50 15 0
-50 17 0
-50 16 18 0
-50 -16 -18 0
50 -15 -17 16 -18 0
50 -15 -17 -16 18 0
c Graph as few edges
-51 58 0
-58 51 3 0
-52 59 0
-59 52 3 0
-51 -3 59 0
-59 52 51 0
-53 60 0
-60 53 3 0
-52 -3 60 0
-60 53 52 0
-54 61 0
-61 54 3 0
-53 -3 61 0
-61 54 53 0
-55 62 0
-62 55 3 0
-54 -3 62 0
-62 55 54 0
-56 63 0
-63 56 3 0
-55 -3 63 0
-63 56 55 0
-57 64 0
-64 57 3 0
-56 -3 64 0
-64 57 56 0
-58 65 0
-65 58 5 0
-59 66 0
-66 59 5 0
-58 -5 66 0
-66 59 58 0
-60 67 0
-67 60 5 0
-59 -5 67 0
-67 60 59 0
-61 68 0
-68 61 5 0
-60 -5 68 0
-68 61 60 0
-62 69 0
-69 62 5 0
-61 -5 69 0
-69 62 61 0
-63 70 0
-70 63 5 0
-62 -5 70 0
-70 63 62 0
-64 71 0
-71 64 5 0
-63 -5 71 0
-71 64 63 0
-65 72 0
-72 65 7 0
-66 73 0
-73 66 7 0
-65 -7 73 0
-73 66 65 0
-67 74 0
-74 67 7 0
-66 -7 74 0
-74 67 66 0
-68 75 0
-75 68 7 0
-67 -7 75 0
-75 68 67 0
-69 76 0
-76 69 7 0
-68 -7 76 0
-76 69 68 0
-70 77 0
-77 70 7 0
-69 -7 77 0
-77 70 69 0
-71 78 0
-78 71 7 0
-70 -7 78 0
-78 71 70 0
-72 79 0
-79 72 9 0
-73 80 0
-80 73 9 0
-72 -9 80 0
-80 73 72 0
-74 81 0
-81 74 9 0
-73 -9 81 0
-81 74 73 0
-75 82 0
-82 75 9 0
-74 -9 82 0
-82 75 74 0
-76 83 0
-83 76 9 0
-75 -9 83 0
-83 76 75 0
-77 84 0
-84 77 9 0
-76 -9 84 0
-84 77 76 0
-78 85 0
-85 78 9 0
-77 -9 85 0
-85 78 77 0
-79 86 0
-86 79 11 0
-80 87 0
-87 80 11 0
-79 -11 87 0
-87 80 79 0
-81 88 0
-88 81 11 0
-80 -11 88 0
-88 81 80 0
-82 89 0
-89 82 11 0
-81 -11 89 0
-89 82 81 0
-83 90 0
-90 83 11 0
-82 -11 90 0
-90 83 82 0
-84 91 0
-91 84 11 0
-83 -11 91 0
-91 84 83 0
-85 92 0
-92 85 11 0
-84 -11 92 0
-92 85 84 0
-86 93 0
-93 86 13 0
-87 94 0
-94 87 13 0
-86 -13 94 0
-94 87 86 0
-88 95 0
-95 88 13 0
-87 -13 95 0
-95 88 87 0
-89 96 0
-96 89 13 0
-88 -13 96 0
-96 89 88 0
-90 97 0
-97 90 13 0
-89 -13 97 0
-97 90 89 0
-91 98 0
-98 91 13 0
-90 -13 98 0
-98 91 90 0
-92 99 0
-99 92 13 0
-91 -13 99 0
-99 92 91 0
-93 100 0
-100 93 15 0
-94 101 0
-101 94 15 0
-93 -15 101 0
-101 94 93 0
-95 102 0
-102 95 15 0
-94 -15 102 0
-102 95 94 0
-96 103 0
-103 96 15 0
-95 -15 103 0
-103 96 95 0
-97 104 0
-104 97 15 0
-96 -15 104 0
-104 97 96 0
-98 105 0
-105 98 15 0
-97 -15 105 0
-105 98 97 0
-99 106 0
-106 99 15 0
-98 -15 106 0
-106 99 98 0
-100 107 0
-107 100 17 0
-101 108 0
-108 101 17 0
-100 -17 108 0
-108 101 100 0
-102 109 0
-109 102 17 0
-101 -17 109 0
-109 102 101 0
-103 110 0
-110 103 17 0
-102 -17 110 0
-110 103 102 0
-104 111 0
-111 104 17 0
-103 -17 111 0
-111 104 103 0
-105 112 0
-112 105 17 0
-104 -17 112 0
-112 105 104 0
-106 113 0
-113 106 17 0
-105 -17 113 0
-113 106 105 0
-107 114 0
-114 107 19 0
-108 115 0
-115 108 19 0
-107 -19 115 0
-115 108 107 0
-109 116 0
-116 109 19 0
-108 -19 116 0
-116 109 108 0
-110 117 0
-117 110 19 0
-109 -19 117 0
-117 110 109 0
-111 118 0
-118 111 19 0
-110 -19 118 0
-118 111 110 0
-112 119 0
-119 112 19 0
-111 -19 119 0
-119 112 111 0
-113 120 0
-120 113 19 0
-112 -19 120 0
-120 113 112 0
51 0
-57 0
-64 0
-71 0
-78 0
-85 0
-92 0
-99 0
-106 0
-113 0
-120 0
119 0
c Variable for even degree
-120 -1 0
120 1 0
-121 -1 -120 0
-121 1 120 0
121 1 -120 0
121 -1 120 0
-122 -3 -121 0
-122 3 121 0
122 3 -121 0
122 -3 121 0
-123 -5 -122 0
-123 5 122 0
123 5 -122 0
123 -5 122 0
-124 -7 -123 0
-124 7 123 0
124 7 -123 0
124 -7 123 0
-125 1 0
125 -1 0
-126 -9 -125 0
-126 9 125 0
126 9 -125 0
126 -9 125 0
-127 -11 -126 0
-127 11 126 0
127 11 -126 0
127 -11 126 0
-128 -13 -127 0
-128 13 127 0
128 13 -127 0
128 -13 127 0
-129 3 0
129 -3 0
-130 -9 -129 0
-130 9 129 0
130 9 -129 0
130 -9 129 0
-131 -15 -130 0
-131 15 130 0
131 15 -130 0
131 -15 130 0
-132 -17 -131 0
-132 17 131 0
132 17 -131 0
132 -17 131 0
-133 5 0
133 -5 0
-134 -11 -133 0
-134 11 133 0
134 11 -133 0
134 -11 133 0
-135 -15 -134 0
-135 15 134 0
135 15 -134 0
135 -15 134 0
-136 -19 -135 0
-136 19 135 0
136 19 -135 0
136 -19 135 0
-137 7 0
137 -7 0
-138 -13 -137 0
-138 13 137 0
138 13 -137 0
138 -13 137 0
-139 -17 -138 0
-139 17 138 0
139 17 -138 0
139 -17 138 0
-140 -19 -139 0
-140 19 139 0
140 19 -139 0
140 -19 139 0
-124 -128 -132 0
-124 -128 -136 0
-124 -128 -140 0
-124 -132 -136 0
-124 -132 -140 0
-124 -136 -140 0
-128 -132 -136 0
-128 -132 -140 0
-128 -136 -140 0
-132 -136 -140 0
